InboundTrucks  = 12;
OutboundTrucks = 8;
InboundDoors   = 4;
OutboundDoors  = 4;
ReleaseTime    = [81,14,3,94,35,31,28,17,94,13,86,94];
UnloadTime     = [44,15,37,12,11,15,23,24,42,11,45,22];
LoadTime       = [27,25,27,22,18,12,19,23];
TransferTime   = [| 0,0,0,37,0,31,34,32 | 0,0,0,0,25,0,0,0 | 0,0,0,0,24,0,0,0 | 0,0,0,0,32,27,0,0 | 50,25,34,0,0,0,30,0 | 0,12,0,0,46,0,0,0 | 0,0,0,0,45,0,0,0 | 0,0,0,41,13,0,20,0 | 0,34,0,0,0,0,0,0 | 44,0,0,0,0,10,0,0 | 0,0,16,0,0,0,0,20 | 0,0,0,30,0,33,0,0 |];
